jobs  (incl. supersource/sink ):	102
RESOURCES
- renewable                 : 2 R
- nonrenewable              : 2 N
- doubly constrained        : 0 D
************************************************************************
PRECEDENCE RELATIONS:
jobnr.    #modes  #successors   successors
1	1	17		2 3 4 5 6 7 8 9 10 11 12 13 15 16 20 21 22 
2	6	11		63 61 55 53 52 43 39 38 30 26 18 
3	6	11		68 55 52 47 43 40 35 32 30 29 14 
4	6	10		46 43 41 40 34 32 28 24 19 17 
5	6	12		65 54 51 43 41 40 39 34 33 31 27 19 
6	6	9		54 50 46 41 35 32 29 23 19 
7	6	9		51 50 47 45 40 38 35 28 19 
8	6	12		63 57 55 54 52 47 44 40 37 35 28 26 
9	6	13		68 65 63 61 57 55 54 53 41 40 37 34 26 
10	6	8		65 54 46 43 41 40 33 19 
11	6	10		63 54 53 52 51 42 35 33 26 25 
12	6	8		54 50 47 46 45 41 28 19 
13	6	12		73 68 67 65 63 61 54 52 50 42 39 28 
14	6	7		63 54 53 34 33 31 26 
15	6	14		73 64 63 57 56 55 54 50 46 45 43 37 36 32 
16	6	11		73 68 61 57 55 54 52 46 34 29 28 
17	6	11		65 63 61 57 54 53 52 50 37 33 29 
18	6	10		73 68 65 54 51 41 40 34 33 29 
19	6	13		73 68 64 63 61 57 56 55 53 52 44 37 36 
20	6	13		73 64 61 56 55 54 50 48 47 44 41 37 36 
21	6	6		68 63 55 53 32 26 
22	6	17		76 73 69 68 67 65 64 63 61 58 57 56 51 50 49 45 44 
23	6	10		73 68 67 64 63 51 48 45 42 28 
24	6	13		73 68 67 64 58 56 55 54 52 47 44 42 36 
25	6	10		72 69 65 64 61 58 48 46 36 34 
26	6	9		73 67 64 58 56 50 46 45 36 
27	6	11		76 73 69 68 61 60 58 57 50 49 45 
28	6	7		72 71 69 58 56 53 36 
29	6	5		67 64 58 56 36 
30	6	10		101 88 80 76 71 67 60 57 49 42 
31	6	13		101 80 79 75 74 72 71 70 69 66 64 57 48 
32	6	18		101 88 87 85 84 80 79 76 75 74 72 71 70 69 65 62 60 59 
33	6	10		101 74 72 71 69 67 64 60 56 49 
34	6	9		100 87 76 75 67 62 59 56 44 
35	6	11		101 88 86 80 76 74 66 65 61 58 49 
36	6	9		101 88 80 76 74 66 60 59 49 
37	6	7		101 99 69 67 58 49 42 
38	6	9		85 75 74 70 62 60 59 57 54 
39	6	10		101 85 82 80 79 74 71 64 57 48 
40	6	9		101 85 82 79 75 74 64 62 48 
41	6	11		100 88 84 82 80 76 75 71 70 62 60 
42	6	12		100 98 87 86 84 81 79 74 72 70 66 62 
43	6	4		99 88 60 49 
44	6	11		101 97 88 85 84 82 80 79 71 70 60 
45	6	10		101 98 87 84 81 80 74 72 70 66 
46	6	11		101 99 98 97 87 84 79 78 76 71 60 
47	6	11		101 100 99 98 87 86 84 81 79 78 66 
48	6	9		100 99 98 97 88 87 84 76 60 
49	6	8		100 87 84 81 79 75 70 62 
50	6	8		98 86 85 84 78 77 70 59 
51	6	11		99 97 95 86 85 84 82 81 79 78 77 
52	6	9		100 98 96 94 87 86 81 77 66 
53	6	13		101 100 99 98 97 96 95 93 86 85 83 81 79 
54	6	11		101 97 93 92 88 87 84 83 81 79 76 
55	6	10		100 96 95 94 87 83 81 78 77 75 
56	6	6		99 94 91 78 77 66 
57	6	8		100 98 97 95 84 83 81 78 
58	6	9		96 95 94 93 92 90 87 85 81 
59	6	7		99 96 95 94 93 82 81 
60	6	6		96 94 86 83 81 77 
61	6	5		97 84 82 81 79 
62	6	7		96 95 94 91 89 83 78 
63	6	6		100 94 91 85 83 77 
64	6	8		98 97 96 95 93 92 89 83 
65	6	6		100 94 93 92 89 82 
66	6	5		97 95 93 85 82 
67	6	5		95 93 92 89 82 
68	6	5		95 94 90 85 81 
69	6	4		93 92 86 82 
70	6	6		96 94 92 91 90 89 
71	6	5		96 94 92 89 83 
72	6	5		95 93 92 91 89 
73	6	5		98 96 94 92 90 
74	6	2		91 77 
75	6	4		98 97 91 89 
76	6	4		95 91 90 89 
77	6	3		93 92 90 
78	6	3		93 92 90 
79	6	3		94 91 89 
80	6	3		99 90 89 
81	6	2		91 89 
82	6	1		83 
83	6	1		90 
84	6	1		96 
85	6	1		89 
86	6	1		89 
87	6	1		91 
88	6	1		95 
89	6	1		102 
90	6	1		102 
91	6	1		102 
92	6	1		102 
93	6	1		102 
94	6	1		102 
95	6	1		102 
96	6	1		102 
97	6	1		102 
98	6	1		102 
99	6	1		102 
100	6	1		102 
101	6	1		102 
102	1	0		
************************************************************************
REQUESTS/DURATIONS
jobnr.	mode	dur	R1	R2	N1	N2	
------------------------------------------------------------------------
1	1	0	0	0	0	0	
2	1	8	9	17	18	13	
	2	10	8	16	14	10	
	3	11	8	14	11	10	
	4	17	8	14	10	9	
	5	19	7	13	8	5	
	6	20	7	12	5	5	
3	1	1	10	18	7	6	
	2	10	9	17	6	6	
	3	11	9	16	5	6	
	4	13	7	16	4	5	
	5	16	5	15	3	5	
	6	18	4	15	3	5	
4	1	1	3	7	19	2	
	2	2	3	7	18	2	
	3	4	3	7	17	2	
	4	8	2	7	16	2	
	5	10	2	7	15	2	
	6	17	2	7	13	2	
5	1	3	17	3	16	8	
	2	4	17	3	13	8	
	3	8	15	3	9	7	
	4	9	10	3	6	7	
	5	11	9	3	5	5	
	6	18	6	3	2	5	
6	1	2	12	19	16	6	
	2	8	10	16	15	5	
	3	10	9	16	15	5	
	4	14	7	14	14	4	
	5	15	4	13	14	4	
	6	17	1	13	13	4	
7	1	3	4	10	9	16	
	2	4	3	10	9	15	
	3	9	3	10	8	13	
	4	16	2	9	5	11	
	5	17	1	8	5	9	
	6	20	1	8	3	6	
8	1	2	17	14	16	7	
	2	6	16	12	13	5	
	3	11	13	10	12	4	
	4	12	12	9	12	4	
	5	13	10	7	10	2	
	6	14	10	6	7	2	
9	1	4	5	11	9	14	
	2	7	4	11	9	13	
	3	10	4	10	7	11	
	4	11	4	10	7	10	
	5	15	4	10	5	8	
	6	16	4	9	4	5	
10	1	2	14	18	15	5	
	2	7	13	17	15	4	
	3	10	13	15	14	3	
	4	12	13	12	13	3	
	5	14	13	12	12	2	
	6	17	13	8	12	2	
11	1	2	18	16	11	17	
	2	10	18	16	10	16	
	3	14	17	15	9	16	
	4	15	16	15	9	15	
	5	18	15	14	9	15	
	6	19	14	13	8	15	
12	1	5	12	12	19	17	
	2	8	11	10	18	17	
	3	13	10	8	18	17	
	4	14	9	7	18	16	
	5	15	8	5	18	15	
	6	17	8	3	18	15	
13	1	2	15	13	20	12	
	2	5	11	13	18	12	
	3	6	9	13	16	10	
	4	10	8	13	15	10	
	5	16	4	13	15	9	
	6	17	2	13	13	8	
14	1	7	6	13	13	18	
	2	9	5	11	12	17	
	3	11	5	8	11	17	
	4	12	5	7	10	15	
	5	15	5	4	8	14	
	6	20	5	2	8	12	
15	1	6	7	14	16	14	
	2	12	5	14	14	13	
	3	17	5	12	9	13	
	4	18	4	11	8	13	
	5	19	3	11	6	13	
	6	20	1	9	3	13	
16	1	4	11	20	13	8	
	2	6	10	18	11	7	
	3	7	8	17	11	6	
	4	13	6	17	10	5	
	5	14	4	16	9	4	
	6	17	4	15	8	4	
17	1	5	17	13	5	17	
	2	9	16	13	5	16	
	3	10	16	13	5	15	
	4	11	15	12	5	14	
	5	14	12	11	4	13	
	6	20	11	11	4	12	
18	1	7	5	5	2	13	
	2	8	4	4	2	13	
	3	10	4	4	2	10	
	4	14	4	4	2	9	
	5	15	4	3	2	6	
	6	19	4	3	2	4	
19	1	5	9	9	9	15	
	2	7	7	7	8	12	
	3	8	6	7	7	11	
	4	11	5	6	6	10	
	5	12	4	5	4	8	
	6	16	4	3	4	6	
20	1	7	18	15	7	17	
	2	8	18	11	7	14	
	3	9	17	11	6	14	
	4	12	15	8	5	12	
	5	13	14	5	4	11	
	6	16	13	5	4	9	
21	1	8	6	13	20	17	
	2	11	5	11	19	17	
	3	13	4	8	19	15	
	4	17	4	6	18	15	
	5	18	2	4	18	13	
	6	19	2	3	18	13	
22	1	3	17	17	17	14	
	2	7	16	15	17	14	
	3	8	15	13	15	13	
	4	9	13	7	11	12	
	5	15	13	7	9	9	
	6	20	11	3	7	8	
23	1	6	13	11	19	14	
	2	8	12	9	15	14	
	3	13	12	6	12	11	
	4	14	12	4	10	8	
	5	16	12	3	8	7	
	6	19	12	1	2	6	
24	1	4	17	19	12	16	
	2	5	13	17	11	14	
	3	6	12	13	10	13	
	4	7	7	13	10	13	
	5	10	4	8	9	12	
	6	18	2	8	8	10	
25	1	3	6	17	16	16	
	2	8	5	17	16	14	
	3	14	4	17	16	12	
	4	16	3	17	16	12	
	5	17	3	17	15	11	
	6	19	2	17	15	9	
26	1	6	2	15	17	14	
	2	7	2	13	14	13	
	3	13	2	11	13	13	
	4	14	2	9	11	13	
	5	15	2	7	9	13	
	6	18	2	6	7	13	
27	1	11	14	5	17	16	
	2	13	13	3	12	15	
	3	14	13	3	10	15	
	4	16	13	2	8	15	
	5	17	13	1	6	15	
	6	18	13	1	5	15	
28	1	8	20	7	5	18	
	2	9	19	6	4	14	
	3	10	19	6	4	13	
	4	18	19	5	3	10	
	5	19	18	4	2	6	
	6	20	18	4	2	3	
29	1	1	3	10	17	11	
	2	3	2	8	16	11	
	3	4	2	7	14	10	
	4	5	2	7	12	10	
	5	6	1	5	10	8	
	6	9	1	4	7	8	
30	1	2	14	20	11	2	
	2	5	13	19	9	2	
	3	6	13	19	8	2	
	4	7	12	19	7	2	
	5	9	12	19	6	2	
	6	11	12	19	5	2	
31	1	7	7	7	1	10	
	2	8	6	6	1	9	
	3	11	5	6	1	9	
	4	15	4	6	1	8	
	5	16	3	6	1	7	
	6	17	2	6	1	7	
32	1	1	9	17	14	14	
	2	2	8	17	14	11	
	3	5	7	16	13	11	
	4	14	6	14	12	9	
	5	17	5	14	11	6	
	6	20	5	13	10	2	
33	1	2	10	12	18	18	
	2	4	9	11	17	16	
	3	8	9	10	17	16	
	4	9	8	8	17	14	
	5	10	8	8	16	14	
	6	12	8	6	16	13	
34	1	1	19	17	18	14	
	2	2	19	17	15	13	
	3	5	18	17	13	11	
	4	10	18	16	12	10	
	5	11	17	16	9	9	
	6	17	17	15	8	6	
35	1	2	11	14	10	8	
	2	6	10	12	9	8	
	3	7	10	10	7	8	
	4	8	8	9	7	8	
	5	14	7	8	4	8	
	6	20	6	6	2	8	
36	1	1	14	20	3	20	
	2	2	11	19	2	19	
	3	3	8	18	2	18	
	4	16	8	18	2	17	
	5	17	5	18	2	18	
	6	18	1	17	2	17	
37	1	3	14	17	16	8	
	2	7	13	17	14	7	
	3	8	11	17	11	7	
	4	11	9	16	8	4	
	5	12	6	16	6	4	
	6	20	3	15	5	1	
38	1	3	9	18	16	12	
	2	7	7	17	14	11	
	3	15	5	17	10	11	
	4	18	4	17	8	10	
	5	19	4	17	4	8	
	6	20	2	17	3	7	
39	1	2	17	12	11	18	
	2	10	17	12	8	16	
	3	11	17	12	7	13	
	4	12	17	12	5	13	
	5	16	16	11	3	9	
	6	17	16	11	1	8	
40	1	1	17	13	15	11	
	2	10	15	12	13	10	
	3	12	15	11	10	9	
	4	14	14	10	9	6	
	5	15	14	10	6	4	
	6	18	13	9	5	3	
41	1	1	17	4	17	16	
	2	9	16	4	16	15	
	3	11	16	4	16	12	
	4	14	16	3	16	12	
	5	18	15	2	15	9	
	6	19	15	2	14	8	
42	1	7	11	13	17	14	
	2	8	10	12	15	11	
	3	14	9	11	15	10	
	4	15	9	9	13	8	
	5	19	9	5	12	7	
	6	20	8	2	12	6	
43	1	1	15	9	11	9	
	2	2	15	9	11	8	
	3	3	14	9	8	8	
	4	4	12	9	5	8	
	5	16	12	9	4	7	
	6	20	11	9	1	7	
44	1	7	16	8	2	17	
	2	9	15	8	2	17	
	3	16	15	7	2	17	
	4	17	14	5	2	17	
	5	19	14	5	2	16	
	6	20	13	3	2	17	
45	1	1	14	10	17	7	
	2	2	14	8	17	6	
	3	3	14	7	17	6	
	4	5	14	6	17	5	
	5	12	14	6	17	4	
	6	17	14	5	17	4	
46	1	3	19	14	18	18	
	2	7	18	13	14	18	
	3	8	17	9	13	18	
	4	10	16	8	11	18	
	5	19	15	3	5	18	
	6	20	15	1	3	18	
47	1	2	17	7	11	7	
	2	3	16	6	8	6	
	3	8	14	6	8	6	
	4	13	13	5	5	5	
	5	14	12	5	4	5	
	6	15	12	5	2	5	
48	1	6	16	11	8	20	
	2	7	14	9	6	19	
	3	15	11	7	5	19	
	4	17	11	4	5	18	
	5	18	8	4	3	18	
	6	20	8	2	3	17	
49	1	3	15	15	12	14	
	2	9	12	12	12	13	
	3	10	10	10	11	11	
	4	12	7	9	9	10	
	5	15	4	6	9	9	
	6	16	3	5	8	7	
50	1	1	15	13	14	8	
	2	7	15	13	14	7	
	3	13	15	13	10	8	
	4	14	15	13	9	8	
	5	18	15	13	7	8	
	6	19	15	13	6	8	
51	1	6	15	18	15	8	
	2	7	15	17	14	8	
	3	14	11	16	11	8	
	4	15	6	15	11	8	
	5	16	5	14	7	8	
	6	18	3	13	6	8	
52	1	2	15	16	7	16	
	2	3	14	15	6	11	
	3	4	13	14	5	10	
	4	16	13	13	3	9	
	5	18	11	13	3	5	
	6	19	11	12	1	3	
53	1	3	9	15	17	19	
	2	5	8	11	13	18	
	3	10	8	9	13	18	
	4	11	8	9	11	18	
	5	13	8	7	9	17	
	6	14	8	5	8	16	
54	1	4	17	7	15	18	
	2	6	15	6	12	18	
	3	7	14	6	11	17	
	4	10	10	6	9	16	
	5	18	6	5	6	16	
	6	19	5	5	5	15	
55	1	6	17	13	18	14	
	2	7	11	12	17	13	
	3	8	10	12	14	13	
	4	10	6	9	11	13	
	5	16	4	8	10	13	
	6	19	3	7	8	13	
56	1	1	16	13	16	17	
	2	6	13	13	15	17	
	3	10	13	12	14	16	
	4	11	9	11	14	13	
	5	15	8	10	13	13	
	6	16	5	8	13	12	
57	1	2	16	12	9	9	
	2	3	15	12	9	9	
	3	4	15	11	9	8	
	4	7	14	9	8	8	
	5	8	13	9	8	8	
	6	18	12	8	7	7	
58	1	1	18	13	17	18	
	2	6	18	12	16	14	
	3	9	18	12	15	12	
	4	14	18	12	15	11	
	5	15	18	12	15	9	
	6	16	18	12	14	6	
59	1	1	17	12	5	19	
	2	4	14	10	5	16	
	3	6	11	10	5	16	
	4	9	9	6	5	12	
	5	10	8	6	5	11	
	6	18	5	4	5	10	
60	1	1	8	17	20	14	
	2	4	8	16	17	14	
	3	7	8	15	14	13	
	4	8	7	14	10	13	
	5	16	7	11	8	11	
	6	18	6	10	5	11	
61	1	1	18	20	11	17	
	2	3	17	18	10	15	
	3	6	15	16	10	14	
	4	7	15	14	9	11	
	5	13	14	14	9	11	
	6	15	13	11	8	8	
62	1	2	15	8	14	17	
	2	5	13	7	13	14	
	3	9	13	7	13	12	
	4	10	12	5	12	10	
	5	14	9	4	11	8	
	6	17	9	4	10	5	
63	1	2	7	18	10	13	
	2	4	7	18	10	12	
	3	8	7	18	10	11	
	4	9	7	17	10	12	
	5	11	6	16	10	12	
	6	14	6	16	10	11	
64	1	5	19	4	19	15	
	2	6	18	3	18	13	
	3	8	17	3	18	12	
	4	11	17	3	17	11	
	5	13	16	2	17	10	
	6	19	15	1	17	9	
65	1	3	13	14	15	17	
	2	8	13	13	14	16	
	3	9	9	12	13	16	
	4	11	9	11	12	15	
	5	12	7	10	11	15	
	6	19	5	7	11	15	
66	1	1	17	10	13	17	
	2	4	12	10	13	17	
	3	11	11	10	13	14	
	4	12	8	9	12	12	
	5	15	6	9	11	10	
	6	20	4	8	11	9	
67	1	1	18	7	5	10	
	2	2	15	7	4	10	
	3	3	15	7	4	9	
	4	10	12	6	3	9	
	5	12	11	6	3	9	
	6	16	10	5	2	9	
68	1	3	11	12	17	10	
	2	9	11	10	16	10	
	3	12	10	10	15	10	
	4	13	9	8	15	10	
	5	14	8	8	14	10	
	6	19	8	7	13	10	
69	1	4	12	12	14	17	
	2	5	10	12	11	15	
	3	6	8	12	10	11	
	4	8	6	12	8	11	
	5	12	3	12	5	6	
	6	14	2	12	4	6	
70	1	8	7	14	17	8	
	2	9	7	12	17	7	
	3	11	6	12	17	7	
	4	14	6	11	17	7	
	5	16	5	9	17	6	
	6	19	4	8	17	6	
71	1	1	18	6	5	6	
	2	2	18	5	4	6	
	3	7	16	5	4	4	
	4	8	16	4	4	3	
	5	13	14	2	3	2	
	6	15	13	2	3	2	
72	1	1	16	12	7	19	
	2	3	13	12	6	16	
	3	8	13	10	6	14	
	4	12	11	8	5	12	
	5	13	10	8	4	10	
	6	20	9	5	4	8	
73	1	3	11	15	17	16	
	2	5	11	15	16	15	
	3	6	9	12	15	14	
	4	9	8	10	14	12	
	5	12	8	8	12	11	
	6	17	7	5	11	9	
74	1	1	16	9	16	16	
	2	2	16	6	12	15	
	3	4	13	5	11	15	
	4	10	13	4	8	14	
	5	13	10	2	5	13	
	6	17	9	2	4	13	
75	1	1	13	18	17	13	
	2	3	10	15	13	12	
	3	7	9	13	12	11	
	4	8	8	11	9	11	
	5	15	7	9	6	9	
	6	20	6	7	3	9	
76	1	3	10	16	17	19	
	2	6	10	15	16	18	
	3	9	8	12	16	18	
	4	10	6	10	15	18	
	5	17	4	10	14	18	
	6	19	3	8	14	18	
77	1	1	10	16	5	19	
	2	3	9	16	4	18	
	3	10	9	16	4	15	
	4	12	7	16	4	14	
	5	14	5	16	4	13	
	6	15	4	16	4	11	
78	1	2	19	19	13	8	
	2	6	17	19	12	8	
	3	10	17	17	11	8	
	4	11	16	16	7	8	
	5	19	15	16	6	8	
	6	20	14	15	4	8	
79	1	1	17	13	8	20	
	2	2	17	10	6	17	
	3	12	15	10	6	16	
	4	17	15	9	4	12	
	5	18	13	6	3	11	
	6	19	13	5	2	9	
80	1	1	12	9	15	20	
	2	3	10	9	15	19	
	3	4	10	8	15	18	
	4	9	10	8	15	16	
	5	18	8	7	15	15	
	6	19	8	7	15	14	
81	1	12	13	17	18	20	
	2	13	11	17	14	14	
	3	15	10	17	12	13	
	4	16	9	16	11	11	
	5	17	8	16	10	8	
	6	19	8	15	8	6	
82	1	12	10	11	13	16	
	2	13	9	11	13	15	
	3	14	9	11	12	12	
	4	17	8	11	11	11	
	5	18	8	10	11	9	
	6	19	7	10	10	8	
83	1	1	17	9	9	19	
	2	2	14	8	8	16	
	3	7	9	7	8	15	
	4	9	7	6	6	12	
	5	18	4	5	6	10	
	6	20	2	3	5	9	
84	1	1	11	14	9	16	
	2	2	11	13	9	15	
	3	4	11	13	9	14	
	4	8	11	13	8	14	
	5	12	11	13	8	13	
	6	17	11	13	8	12	
85	1	4	10	18	9	12	
	2	5	9	15	8	11	
	3	6	8	15	7	11	
	4	9	6	13	7	11	
	5	10	5	12	5	10	
	6	18	5	12	5	9	
86	1	1	17	9	16	13	
	2	3	17	8	15	10	
	3	4	17	8	14	10	
	4	5	17	7	14	7	
	5	12	17	7	12	4	
	6	20	17	7	12	3	
87	1	3	9	16	8	16	
	2	4	9	16	5	15	
	3	10	8	13	5	15	
	4	11	8	11	4	15	
	5	14	7	8	3	14	
	6	19	6	7	2	13	
88	1	4	2	17	12	20	
	2	14	2	17	12	16	
	3	15	2	16	11	14	
	4	16	2	16	10	10	
	5	17	2	15	10	7	
	6	18	2	14	9	6	
89	1	9	12	10	16	16	
	2	11	11	10	15	15	
	3	12	11	7	14	14	
	4	13	9	7	13	14	
	5	19	7	5	10	13	
	6	20	7	3	9	13	
90	1	1	13	14	16	15	
	2	2	12	11	16	11	
	3	3	11	10	15	8	
	4	4	9	8	14	7	
	5	6	9	7	13	4	
	6	12	8	6	13	2	
91	1	1	16	7	5	15	
	2	2	15	7	5	14	
	3	6	14	7	5	14	
	4	12	13	6	5	12	
	5	13	13	5	5	12	
	6	14	12	5	5	11	
92	1	1	7	4	5	12	
	2	2	7	4	5	11	
	3	5	6	3	5	12	
	4	12	6	3	5	11	
	5	13	5	2	5	12	
	6	16	4	2	5	12	
93	1	2	12	5	14	17	
	2	3	12	4	13	12	
	3	4	11	3	12	11	
	4	7	9	3	11	9	
	5	16	9	2	11	7	
	6	20	8	1	10	4	
94	1	3	10	16	17	17	
	2	6	8	15	16	16	
	3	7	8	14	13	14	
	4	12	7	13	12	14	
	5	13	6	11	11	12	
	6	18	4	9	8	11	
95	1	2	7	16	13	12	
	2	6	5	14	11	9	
	3	7	5	12	11	7	
	4	8	4	9	9	7	
	5	11	4	9	5	3	
	6	12	3	6	4	3	
96	1	10	9	18	17	19	
	2	11	9	16	15	18	
	3	13	9	11	13	17	
	4	14	9	9	13	16	
	5	17	9	5	9	15	
	6	19	9	1	8	14	
97	1	1	16	7	10	18	
	2	3	16	6	8	17	
	3	5	15	5	6	16	
	4	11	13	5	5	15	
	5	17	13	5	4	12	
	6	20	11	4	3	10	
98	1	1	12	17	17	13	
	2	3	11	15	15	12	
	3	10	9	14	12	9	
	4	17	7	12	10	7	
	5	18	4	12	6	5	
	6	20	3	10	4	4	
99	1	12	18	17	16	15	
	2	13	18	16	15	13	
	3	14	16	13	14	11	
	4	15	15	11	12	11	
	5	16	11	11	9	10	
	6	20	11	7	7	7	
100	1	1	15	18	17	19	
	2	5	14	15	15	18	
	3	9	13	15	12	18	
	4	11	13	11	12	16	
	5	15	12	10	11	16	
	6	19	12	8	8	14	
101	1	5	19	19	15	13	
	2	6	19	17	13	10	
	3	12	19	16	12	8	
	4	13	18	16	12	7	
	5	14	18	14	11	7	
	6	17	18	13	10	4	
102	1	0	0	0	0	0	
************************************************************************

 RESOURCE AVAILABILITIES 
	R 1	R 2	N 1	N 2
	69	74	868	997

************************************************************************
